41 16 92 89 90 51 32 24 13 86 30 17 62 55 26 49 47 10 46 93 33 98 58 63 0 37 27 15 96 50 77 8 4 82 43 87 66 88 95 35 19 54 21 23 5 60 28 22 39 78 29 48 20 94 38 6 18 12 67 84 2 79 69 7 36 68 3 70 31 11 97 42 64 59 14 71 85 9 83 80 73 72 99 53 52 91 25 76 1 44 61 45 75 56 65 74 81 57 40 34 

